sssd25-04.py
Ipopt 3.12.8: 
==> Warning: Treating 112 binary and 0 integer variables as continous.


******************************************************************************
This program contains Ipopt, a library for large-scale nonlinear optimization.
 Ipopt is released as open source code under the Eclipse Public License (EPL).
         For more information visit http://projects.coin-or.org/Ipopt
******************************************************************************

This is Ipopt version 3.12.8, running with linear solver ma27.

Number of nonzeros in equality constraint Jacobian...:      212
Number of nonzeros in inequality constraint Jacobian.:       60
Number of nonzeros in Lagrangian Hessian.............:        4

Total number of variables............................:      128
                     variables with only lower bounds:       16
                variables with lower and upper bounds:      112
                     variables with only upper bounds:        0
Total number of equality constraints.................:       29
Total number of inequality constraints...............:       28
        inequality constraints with only lower bounds:        0
   inequality constraints with lower and upper bounds:        0
        inequality constraints with only upper bounds:       28

iter    objective    inf_pr   inf_du lg(mu)  ||d||  lg(rg) alpha_du alpha_pr  ls
   0  3.6815737e+03 9.60e-01 2.85e+01  -1.0 0.00e+00    -  0.00e+00 0.00e+00   0
   1  3.9145908e+03 9.30e-01 2.70e+01  -1.0 6.00e-01    -  4.55e-02 3.15e-02f  1
   2  1.1282595e+04 8.49e-01 2.78e+01  -1.0 8.26e-01    -  5.33e-02 8.68e-02f  1
   3  2.9067865e+04 6.60e-01 1.76e+01  -1.0 8.47e-01    -  3.78e-01 2.23e-01h  1
   4  7.6827654e+04 1.99e-01 1.99e+01  -1.0 7.06e-01    -  3.62e-01 6.98e-01h  1
   5  1.0853201e+05 4.11e-03 1.77e+00  -1.0 2.34e-01    -  1.00e+00 1.00e+00h  1
   6  1.1091999e+05 1.78e-15 2.36e-02  -1.0 3.60e-02    -  1.00e+00 1.00e+00h  1
   7  1.0938537e+05 2.13e-05 3.98e-01  -2.5 1.47e-01    -  7.58e-01 9.89e-01f  1
   8  1.0848988e+05 1.33e-15 2.50e-01  -2.5 4.81e-01    -  6.39e-01 9.13e-01f  1
   9  1.0806298e+05 8.88e-16 1.05e-01  -2.5 3.67e-01    -  8.05e-01 1.00e+00f  1
iter    objective    inf_pr   inf_du lg(mu)  ||d||  lg(rg) alpha_du alpha_pr  ls
  10  1.0797923e+05 1.78e-15 7.21e-06  -2.5 2.42e-01    -  1.00e+00 1.00e+00f  1
  11  1.0775604e+05 1.33e-15 2.68e-02  -3.8 2.47e-01    -  7.51e-01 9.67e-01f  1
  12  1.0773822e+05 2.66e-15 2.43e-02  -3.8 1.34e-01    -  7.95e-01 9.49e-01f  1
  13  1.0773614e+05 2.22e-15 2.28e-06  -3.8 1.10e-01    -  1.00e+00 1.00e+00f  1
  14  1.0772205e+05 3.55e-15 3.34e-03  -5.7 6.69e-02    -  7.43e-01 9.91e-01f  1
  15  1.0772170e+05 2.22e-15 4.47e-04  -5.7 2.43e-01    -  8.78e-01 1.00e+00f  1
  16  1.0772170e+05 2.66e-15 1.60e-08  -5.7 1.53e-03    -  1.00e+00 1.00e+00h  1
  17  1.0772153e+05 2.22e-15 1.33e-05  -8.6 8.25e-03    -  9.85e-01 9.49e-01f  1
  18  1.0772152e+05 3.55e-15 1.16e-11  -8.6 3.68e-05    -  1.00e+00 1.00e+00f  1

Number of Iterations....: 18

                                   (scaled)                 (unscaled)
Objective...............:   1.2930422915371693e+02    1.0772151931989279e+05
Dual infeasibility......:   1.1552381504410213e-11    9.6241251779839768e-09
Constraint violation....:   3.5527136788005009e-15    3.5527136788005009e-15
Complementarity.........:   2.9883867995899902e-09    2.4895826569187826e-06
Overall NLP error.......:   2.9883867995899902e-09    2.4895826569187826e-06


Number of objective function evaluations             = 19
Number of objective gradient evaluations             = 19
Number of equality constraint evaluations            = 19
Number of inequality constraint evaluations          = 19
Number of equality constraint Jacobian evaluations   = 19
Number of inequality constraint Jacobian evaluations = 19
Number of Lagrangian Hessian evaluations             = 18
Total CPU secs in IPOPT (w/o function evaluations)   =      0.008
Total CPU secs in NLP function evaluations           =      0.000

EXIT: Optimal Solution Found.

Time elapsed: 0.144454956055